\ENCODING=ISO-8859-1
\Problem name: ilog.cplex

Maximize
 obj: 764 x(0)#0 + 816 x(1)#1 + 812 x(2)#2 + 712 x(3)#3 + 518 x(4)#4
      + 741 x(5)#5 + 806 x(6)#6 + 798 x(7)#7 + 1043 x(8)#8 + 886 x(9)#9
      + 928 x(10)#10 + 522 x(11)#11 + 1243 x(12)#12 + 671 x(13)#13
      + 813 x(14)#14 + 701 x(15)#15 + 1041 x(16)#16 + 645 x(17)#17
      + 782 x(18)#18 + 488 x(19)#19 + 629 x(20)#20 + 937 x(21)#21
      + 486 x(22)#22 + 642 x(23)#23 + 781 x(24)#24 + 751 x(25)#25
      + 521 x(26)#26 + 972 x(27)#27 + 578 x(28)#28 + 792 x(29)#29
      + 1087 x(30)#30 + 809 x(31)#31 + 574 x(32)#32 + 940 x(33)#33
      + 1030 x(34)#34 + 812 x(35)#35 + 776 x(36)#36 + 764 x(37)#37
      + 439 x(38)#38 + 574 x(39)#39 + 1081 x(40)#40 + 1139 x(41)#41
      + 1089 x(42)#42 + 807 x(43)#43 + 657 x(44)#44 + 900 x(45)#45
      + 699 x(46)#46 + 534 x(47)#47 + 989 x(48)#48 + 812 x(49)#49
      + 862 x(50)#50 + 518 x(51)#51 + 580 x(52)#52 + 878 x(53)#53
      + 602 x(54)#54 + 519 x(55)#55 + 664 x(56)#56 + 971 x(57)#57
      + 772 x(58)#58 + 619 x(59)#59 + 1103 x(60)#60 + 770 x(61)#61
      + 832 x(62)#62 + 712 x(63)#63 + 518 x(64)#64 + 917 x(65)#65
      + 817 x(66)#66 + 786 x(67)#67 + 996 x(68)#68 + 933 x(69)#69
      + 1021 x(70)#70 + 899 x(71)#71 + 703 x(72)#72 + 471 x(73)#73
      + 1043 x(74)#74 + 709 x(75)#75 + 906 x(76)#76 + 633 x(77)#77
      + 553 x(78)#78 + 570 x(79)#79 + 628 x(80)#80 + 791 x(81)#81
      + 932 x(82)#82 + 660 x(83)#83 + 928 x(84)#84 + 842 x(85)#85
      + 852 x(86)#86 + 591 x(87)#87 + 539 x(88)#88 + 719 x(89)#89
      + 827 x(90)#90 + 624 x(91)#91 + 811 x(92)#92 + 988 x(93)#93
      + 835 x(94)#94 + 684 x(95)#95 + 586 x(96)#96 + 871 x(97)#97
      + 655 x(98)#98 + 813 x(99)#99
Subject To
 c1:  66 x(0)#0 + 681 x(1)#1 + 626 x(2)#2 + 661 x(3)#3 + 350 x(4)#4
      + 676 x(5)#5 + 940 x(6)#6 + 181 x(7)#7 + 744 x(8)#8 + 706 x(9)#9
      + 338 x(10)#10 + 798 x(11)#11 + 738 x(12)#12 + 778 x(13)#13
      + 226 x(14)#14 + 817 x(15)#15 + 969 x(16)#16 + 72 x(17)#17 + 121 x(18)#18
      + 482 x(19)#19 + 395 x(20)#20 + 44 x(21)#21 + 277 x(22)#22 + 269 x(23)#23
      + 651 x(24)#24 + 784 x(25)#25 + 444 x(26)#26 + 864 x(27)#27 + 87 x(28)#28
      + 781 x(29)#29 + 944 x(30)#30 + 340 x(31)#31 + 348 x(32)#32 + 42 x(33)#33
      + 871 x(34)#34 + 738 x(35)#35 + 646 x(36)#36 + 585 x(37)#37
      + 212 x(38)#38 + 816 x(39)#39 + 17 x(40)#40 + 834 x(41)#41 + 783 x(42)#42
      + 513 x(43)#43 + 406 x(44)#44 + 659 x(45)#45 + 69 x(46)#46 + 318 x(47)#47
      + 287 x(48)#48 + 198 x(49)#49 + 328 x(50)#50 + 774 x(51)#51 + 81 x(52)#52
      + 185 x(53)#53 + 828 x(54)#54 + 742 x(55)#55 + 180 x(56)#56
      + 556 x(57)#57 + 182 x(58)#58 + 921 x(59)#59 + 468 x(60)#60
      + 213 x(61)#61 + 37 x(62)#62 + 302 x(63)#63 + 492 x(64)#64 + 315 x(65)#65
      + 846 x(66)#66 + 845 x(67)#67 + 831 x(68)#68 + 148 x(69)#69
      + 145 x(70)#70 + 399 x(71)#71 + 95 x(72)#72 + 7 x(73)#73 + 981 x(74)#74
      + 671 x(75)#75 + 418 x(76)#76 + 377 x(77)#77 + 291 x(78)#78 + 76 x(79)#79
      + 816 x(80)#80 + 472 x(81)#81 + 509 x(82)#82 + 412 x(83)#83 + 21 x(84)#84
      + 633 x(85)#85 + 173 x(86)#86 + 472 x(87)#87 + 622 x(88)#88
      + 265 x(89)#89 + 229 x(90)#90 + 890 x(91)#91 + 229 x(92)#92
      + 126 x(93)#93 + 947 x(94)#94 + 167 x(95)#95 + 4 x(96)#96 + 187 x(97)#97
      + 952 x(98)#98 + 356 x(99)#99 <= 34806
 c2:  963 x(0)#0 + 22 x(1)#1 + 436 x(2)#2 + 657 x(3)#3 + 810 x(4)#4
      + 802 x(5)#5 + 531 x(6)#6 + 224 x(7)#7 + 982 x(8)#8 + 379 x(9)#9
      + 542 x(10)#10 + 141 x(11)#11 + 828 x(12)#12 + 165 x(13)#13 + 42 x(14)#14
      + 107 x(15)#15 + 846 x(16)#16 + 899 x(17)#17 + 24 x(18)#18 + 330 x(19)#19
      + 960 x(20)#20 + 456 x(21)#21 + 9 x(22)#22 + 210 x(23)#23 + 234 x(24)#24
      + 207 x(25)#25 + 488 x(26)#26 + 581 x(27)#27 + 459 x(28)#28 + 51 x(29)#29
      + 773 x(30)#30 + 552 x(31)#31 + 785 x(32)#32 + 646 x(33)#33
      + 813 x(34)#34 + 680 x(35)#35 + 835 x(36)#36 + 730 x(37)#37
      + 450 x(38)#38 + 636 x(39)#39 + 458 x(40)#40 + 665 x(41)#41
      + 499 x(42)#42 + 919 x(43)#43 + 668 x(44)#44 + 485 x(45)#45
      + 181 x(46)#46 + 474 x(47)#47 + 879 x(48)#48 + 119 x(49)#49
      + 821 x(50)#50 + 851 x(51)#51 + 788 x(52)#52 + 72 x(53)#53 + 130 x(54)#54
      + 64 x(55)#55 + 107 x(56)#56 + x(57)#57 + 740 x(58)#58 + 946 x(59)#59
      + 969 x(60)#60 + 162 x(61)#61 + 236 x(62)#62 + 457 x(63)#63
      + 729 x(64)#64 + 781 x(65)#65 + 731 x(66)#66 + 915 x(67)#67
      + 680 x(68)#68 + 936 x(69)#69 + 866 x(70)#70 + 347 x(71)#71
      + 895 x(72)#72 + 20 x(73)#73 + 645 x(74)#74 + 643 x(75)#75 + 750 x(76)#76
      + 273 x(77)#77 + 294 x(78)#78 + 715 x(79)#79 + 661 x(80)#80
      + 910 x(81)#81 + 571 x(82)#82 + 165 x(83)#83 + 2 x(84)#84 + 226 x(85)#85
      + 7 x(86)#86 + 150 x(87)#87 + 625 x(88)#88 + 531 x(89)#89 + 745 x(90)#90
      + 92 x(91)#91 + 486 x(92)#92 + 713 x(93)#93 + 686 x(94)#94 + 839 x(95)#95
      + 380 x(96)#96 + 202 x(97)#97 + 911 x(98)#98 + 633 x(99)#99 <= 38798
 c3:  627 x(0)#0 + 731 x(1)#1 + 787 x(2)#2 + 5 x(3)#3 + 100 x(4)#4 + 244 x(5)#5
      + 650 x(6)#6 + 674 x(7)#7 + 564 x(8)#8 + 841 x(9)#9 + 935 x(10)#10
      + 164 x(11)#11 + 889 x(12)#12 + 207 x(13)#13 + 11 x(14)#14 + 222 x(15)#15
      + 336 x(16)#16 + 733 x(17)#17 + 9 x(18)#18 + 834 x(19)#19 + 18 x(20)#20
      + 909 x(21)#21 + 341 x(22)#22 + 908 x(23)#23 + 267 x(24)#24
      + 295 x(25)#25 + 579 x(26)#26 + 674 x(27)#27 + 80 x(28)#28 + 237 x(29)#29
      + 873 x(30)#30 + 772 x(31)#31 + 331 x(32)#32 + 900 x(33)#33
      + 636 x(34)#34 + 2 x(35)#35 + 496 x(36)#36 + 223 x(37)#37 + 987 x(38)#38
      + 194 x(39)#39 + 901 x(40)#40 + 827 x(41)#41 + 230 x(42)#42
      + 671 x(43)#43 + 252 x(44)#44 + 731 x(45)#45 + 604 x(46)#46
      + 104 x(47)#47 + 64 x(48)#48 + 505 x(49)#49 + 79 x(50)#50 + 765 x(51)#51
      + 744 x(52)#52 + 496 x(53)#53 + 632 x(54)#54 + 410 x(55)#55
      + 942 x(56)#56 + 205 x(57)#57 + 786 x(58)#58 + 682 x(59)#59
      + 863 x(60)#60 + 463 x(61)#61 + 96 x(62)#62 + 554 x(63)#63 + 216 x(64)#64
      + 554 x(65)#65 + 949 x(66)#66 + 170 x(67)#67 + 501 x(68)#68 + 96 x(69)#69
      + 856 x(70)#70 + 284 x(71)#71 + 393 x(72)#72 + 114 x(73)#73
      + 491 x(74)#74 + 826 x(75)#75 + 589 x(76)#76 + 217 x(77)#77
      + 616 x(78)#78 + 713 x(79)#79 + 297 x(80)#80 + 159 x(81)#81
      + 578 x(82)#82 + 264 x(83)#83 + 410 x(84)#84 + 740 x(85)#85
      + 452 x(86)#86 + 670 x(87)#87 + 377 x(88)#88 + 602 x(89)#89
      + 756 x(90)#90 + 22 x(91)#91 + 144 x(92)#92 + 79 x(93)#93 + 325 x(94)#94
      + 564 x(95)#95 + 83 x(96)#96 + 278 x(97)#97 + 376 x(98)#98 + 389 x(99)#99
      <= 35281
 c4:  219 x(0)#0 + 548 x(1)#1 + 488 x(2)#2 + 848 x(3)#3 + 513 x(4)#4
      + 443 x(5)#5 + 376 x(6)#6 + 662 x(7)#7 + 964 x(8)#8 + 721 x(9)#9
      + 804 x(10)#10 + 850 x(11)#11 + 986 x(12)#12 + 478 x(13)#13
      + 746 x(14)#14 + 929 x(15)#15 + 617 x(16)#16 + 336 x(17)#17
      + 895 x(18)#18 + 424 x(19)#19 + 811 x(20)#20 + 350 x(21)#21
      + 353 x(22)#22 + 904 x(23)#23 + 99 x(24)#24 + 230 x(25)#25 + 336 x(26)#26
      + 283 x(27)#27 + 266 x(28)#28 + 287 x(29)#29 + 979 x(30)#30
      + 443 x(31)#31 + 440 x(32)#32 + 821 x(33)#33 + 380 x(34)#34
      + 614 x(35)#35 + 731 x(36)#36 + 264 x(37)#37 + 187 x(38)#38
      + 723 x(39)#39 + 897 x(40)#40 + 316 x(41)#41 + 427 x(42)#42
      + 140 x(43)#43 + 854 x(44)#44 + 415 x(45)#45 + 703 x(46)#46
      + 801 x(47)#47 + 347 x(48)#48 + 532 x(49)#49 + 322 x(50)#50
      + 232 x(51)#51 + 324 x(52)#52 + 178 x(53)#53 + 88 x(54)#54 + 439 x(55)#55
      + 824 x(56)#56 + 147 x(57)#57 + 633 x(58)#58 + 477 x(59)#59
      + 407 x(60)#60 + 501 x(61)#61 + 703 x(62)#62 + 627 x(63)#63
      + 646 x(64)#64 + 939 x(65)#65 + 756 x(66)#66 + 206 x(67)#67
      + 897 x(68)#68 + 425 x(69)#69 + 109 x(70)#70 + 993 x(71)#71
      + 292 x(72)#72 + 626 x(73)#73 + 771 x(74)#74 + 29 x(75)#75 + 762 x(76)#76
      + 785 x(77)#77 + 448 x(78)#78 + 664 x(79)#79 + 578 x(80)#80
      + 361 x(81)#81 + 124 x(82)#82 + 478 x(83)#83 + 765 x(84)#84 + 53 x(85)#85
      + 587 x(86)#86 + 250 x(87)#87 + 872 x(88)#88 + 383 x(89)#89
      + 751 x(90)#90 + 579 x(91)#91 + 753 x(92)#92 + 473 x(93)#93
      + 604 x(94)#94 + 215 x(95)#95 + 307 x(96)#96 + 173 x(97)#97
      + 871 x(98)#98 + 840 x(99)#99 <= 39785
 c5:  698 x(0)#0 + 637 x(1)#1 + 973 x(2)#2 + 968 x(3)#3 + 582 x(4)#4
      + 58 x(5)#5 + 853 x(6)#6 + 630 x(7)#7 + 808 x(8)#8 + 877 x(9)#9
      + 94 x(10)#10 + 278 x(11)#11 + 973 x(12)#12 + 406 x(13)#13 + 655 x(14)#14
      + 674 x(15)#15 + 52 x(16)#16 + 40 x(17)#17 + 351 x(18)#18 + 171 x(19)#19
      + 714 x(20)#20 + 201 x(21)#21 + 491 x(22)#22 + 77 x(23)#23 + 624 x(24)#24
      + 154 x(25)#25 + 617 x(26)#26 + 453 x(27)#27 + 281 x(28)#28
      + 651 x(29)#29 + 710 x(30)#30 + 324 x(31)#31 + 54 x(32)#32 + 620 x(33)#33
      + 724 x(34)#34 + 584 x(35)#35 + 582 x(36)#36 + 572 x(37)#37
      + 721 x(38)#38 + 111 x(39)#39 + 998 x(40)#40 + 378 x(41)#41
      + 936 x(42)#42 + 611 x(43)#43 + 652 x(44)#44 + 268 x(45)#45 + 64 x(46)#46
      + 460 x(47)#47 + 251 x(48)#48 + 906 x(49)#49 + 767 x(50)#50
      + 776 x(51)#51 + 45 x(52)#52 + 953 x(53)#53 + 612 x(54)#54 + 587 x(55)#55
      + 109 x(56)#56 + 969 x(57)#57 + 863 x(58)#58 + 799 x(59)#59
      + 880 x(60)#60 + 750 x(61)#61 + 825 x(62)#62 + 58 x(63)#63 + 566 x(64)#64
      + 191 x(65)#65 + 186 x(66)#66 + 57 x(67)#67 + 332 x(68)#68 + 913 x(69)#69
      + 919 x(70)#70 + 232 x(71)#71 + 574 x(72)#72 + 608 x(73)#73
      + 848 x(74)#74 + 143 x(75)#75 + 887 x(76)#76 + 866 x(77)#77
      + 234 x(78)#78 + 764 x(79)#79 + 657 x(80)#80 + 284 x(81)#81
      + 633 x(82)#82 + 619 x(83)#83 + 251 x(84)#84 + 776 x(85)#85
      + 443 x(86)#86 + 549 x(87)#87 + 438 x(88)#88 + 437 x(89)#89
      + 269 x(90)#90 + 219 x(91)#91 + 174 x(92)#92 + 630 x(93)#93
      + 191 x(94)#94 + 569 x(95)#95 + 832 x(96)#96 + 102 x(97)#97
      + 599 x(98)#98 + 275 x(99)#99 <= 38870
 c6:  560 x(0)#0 + 72 x(1)#1 + 254 x(2)#2 + 417 x(3)#3 + 687 x(4)#4
      + 360 x(5)#5 + 884 x(6)#6 + 26 x(7)#7 + 175 x(8)#8 + 136 x(9)#9
      + 307 x(10)#10 + 177 x(11)#11 + 174 x(12)#12 + 45 x(13)#13 + 94 x(14)#14
      + 226 x(15)#15 + 404 x(16)#16 + 358 x(17)#17 + 272 x(18)#18
      + 531 x(19)#19 + 845 x(20)#20 + 783 x(21)#21 + 949 x(22)#22
      + 354 x(23)#23 + 84 x(24)#24 + 769 x(25)#25 + 889 x(26)#26 + 211 x(27)#27
      + 526 x(28)#28 + 503 x(29)#29 + 778 x(30)#30 + 870 x(31)#31
      + 914 x(32)#32 + 897 x(33)#33 + 30 x(34)#34 + 610 x(35)#35 + 722 x(36)#36
      + 521 x(37)#37 + 444 x(38)#38 + 692 x(39)#39 + 234 x(40)#40
      + 567 x(41)#41 + 460 x(42)#42 + 349 x(43)#43 + 547 x(44)#44
      + 925 x(45)#45 + 942 x(46)#46 + 334 x(47)#47 + 262 x(48)#48
      + 634 x(49)#49 + 419 x(50)#50 + 461 x(51)#51 + 169 x(52)#52
      + 398 x(53)#53 + 125 x(54)#54 + 893 x(55)#55 + 291 x(56)#56
      + 666 x(57)#57 + 655 x(58)#58 + 462 x(59)#59 + 927 x(60)#60
      + 484 x(61)#61 + 492 x(62)#62 + 450 x(63)#63 + 803 x(64)#64
      + 253 x(65)#65 + 817 x(66)#66 + 187 x(67)#67 + 669 x(68)#68
      + 452 x(69)#69 + 578 x(70)#70 + 548 x(71)#71 + 170 x(72)#72
      + 663 x(73)#73 + 365 x(74)#74 + 54 x(75)#75 + 286 x(76)#76 + 61 x(77)#77
      + 848 x(78)#78 + 424 x(79)#79 + 43 x(80)#80 + 628 x(81)#81 + 235 x(82)#82
      + 323 x(83)#83 + 322 x(84)#84 + 307 x(85)#85 + 438 x(86)#86
      + 426 x(87)#87 + 394 x(88)#88 + 598 x(89)#89 + 561 x(90)#90
      + 396 x(91)#91 + 851 x(92)#92 + 533 x(93)#93 + 853 x(94)#94
      + 134 x(95)#95 + 17 x(96)#96 + 252 x(97)#97 + 445 x(98)#98 + 43 x(99)#99
      <= 34255
 c7:  130 x(0)#0 + 144 x(1)#1 + 980 x(2)#2 + 908 x(3)#3 + 78 x(4)#4 + 15 x(5)#5
      + 653 x(6)#6 + 662 x(7)#7 + 281 x(8)#8 + 292 x(9)#9 + 365 x(10)#10
      + 182 x(11)#11 + 418 x(12)#12 + 844 x(13)#13 + 265 x(14)#14
      + 996 x(15)#15 + 288 x(16)#16 + 237 x(17)#17 + 103 x(18)#18
      + 826 x(19)#19 + 217 x(20)#20 + 167 x(21)#21 + 406 x(22)#22
      + 907 x(23)#23 + 186 x(24)#24 + 305 x(25)#25 + 84 x(26)#26 + 716 x(27)#27
      + 574 x(28)#28 + 325 x(29)#29 + 11 x(30)#30 + 740 x(31)#31 + 472 x(32)#32
      + 758 x(33)#33 + 690 x(34)#34 + 667 x(35)#35 + 742 x(36)#36
      + 695 x(37)#37 + 293 x(38)#38 + 899 x(39)#39 + 955 x(40)#40
      + 859 x(41)#41 + 461 x(42)#42 + 577 x(43)#43 + 747 x(44)#44
      + 644 x(45)#45 + 853 x(46)#46 + 186 x(47)#47 + 588 x(48)#48
      + 548 x(49)#49 + 521 x(50)#50 + 173 x(51)#51 + 504 x(52)#52
      + 989 x(53)#53 + 255 x(54)#54 + 789 x(55)#55 + 429 x(56)#56
      + 625 x(57)#57 + 826 x(58)#58 + 731 x(59)#59 + 177 x(60)#60
      + 224 x(61)#61 + 338 x(62)#62 + 429 x(63)#63 + 135 x(64)#64
      + 621 x(65)#65 + 166 x(66)#66 + 856 x(67)#67 + 867 x(68)#68
      + 864 x(69)#69 + 981 x(70)#70 + 319 x(71)#71 + 804 x(72)#72
      + 401 x(73)#73 + 679 x(74)#74 + 713 x(75)#75 + 78 x(76)#76 + 633 x(77)#77
      + 374 x(78)#78 + 723 x(79)#79 + 116 x(80)#80 + 537 x(81)#81
      + 204 x(82)#82 + 523 x(83)#83 + 688 x(84)#84 + 463 x(85)#85
      + 667 x(86)#86 + 424 x(87)#87 + 843 x(88)#88 + 948 x(89)#89
      + 367 x(90)#90 + 226 x(91)#91 + 219 x(92)#92 + 950 x(93)#93 + 52 x(94)#94
      + 85 x(95)#95 + 399 x(96)#96 + 998 x(97)#97 + 742 x(98)#98 + 21 x(99)#99
      <= 37976
 c8:  379 x(0)#0 + 161 x(1)#1 + 372 x(2)#2 + 368 x(3)#3 + 164 x(4)#4
      + 727 x(5)#5 + 980 x(6)#6 + 510 x(7)#7 + 915 x(8)#8 + 973 x(9)#9
      + 165 x(10)#10 + 265 x(11)#11 + 770 x(12)#12 + 131 x(13)#13
      + 775 x(14)#14 + 140 x(15)#15 + 656 x(16)#16 + 773 x(17)#17
      + 467 x(18)#18 + 253 x(19)#19 + 300 x(20)#20 + 970 x(21)#21
      + 570 x(22)#22 + 155 x(23)#23 + 546 x(24)#24 + 54 x(25)#25 + 734 x(26)#26
      + 814 x(27)#27 + 384 x(28)#28 + 784 x(29)#29 + 867 x(30)#30
      + 216 x(31)#31 + 128 x(32)#32 + 850 x(33)#33 + 459 x(34)#34
      + 319 x(35)#35 + 444 x(36)#36 + 348 x(37)#37 + 204 x(38)#38
      + 328 x(39)#39 + 915 x(40)#40 + 840 x(41)#41 + 826 x(42)#42
      + 826 x(43)#43 + 589 x(44)#44 + 963 x(45)#45 + 275 x(46)#46
      + 800 x(47)#47 + 751 x(48)#48 + 424 x(49)#49 + 743 x(50)#50
      + 380 x(51)#51 + 744 x(52)#52 + 716 x(53)#53 + 484 x(54)#54
      + 284 x(55)#55 + 696 x(56)#56 + 873 x(57)#57 + 771 x(58)#58
      + 310 x(59)#59 + 979 x(60)#60 + 43 x(61)#61 + 404 x(62)#62 + 403 x(63)#63
      + 185 x(64)#64 + 908 x(65)#65 + 194 x(66)#66 + 36 x(67)#67 + 586 x(68)#68
      + 640 x(69)#69 + 838 x(70)#70 + 734 x(71)#71 + 260 x(72)#72
      + 496 x(73)#73 + 988 x(74)#74 + 552 x(75)#75 + 149 x(76)#76 + 64 x(77)#77
      + 624 x(78)#78 + 255 x(79)#79 + 775 x(80)#80 + 703 x(81)#81
      + 847 x(82)#82 + 734 x(83)#83 + 887 x(84)#84 + 913 x(85)#85
      + 269 x(86)#86 + 518 x(87)#87 + 428 x(88)#88 + 526 x(89)#89
      + 273 x(90)#90 + 863 x(91)#91 + 447 x(92)#92 + 8 x(93)#93 + 562 x(94)#94
      + 820 x(95)#95 + 310 x(96)#96 + 631 x(97)#97 + 24 x(98)#98 + 511 x(99)#99
      <= 39761
 c9:  376 x(0)#0 + 148 x(1)#1 + 715 x(2)#2 + 42 x(3)#3 + 752 x(4)#4
      + 688 x(5)#5 + 549 x(6)#6 + 641 x(7)#7 + 563 x(8)#8 + 866 x(9)#9
      + 854 x(10)#10 + 929 x(11)#11 + 912 x(12)#12 + 147 x(13)#13
      + 858 x(14)#14 + 833 x(15)#15 + 585 x(16)#16 + 458 x(17)#17
      + 732 x(18)#18 + 578 x(19)#19 + 886 x(20)#20 + 453 x(21)#21
      + 385 x(22)#22 + 119 x(23)#23 + 52 x(24)#24 + 846 x(25)#25 + 197 x(26)#26
      + 916 x(27)#27 + 183 x(28)#28 + 866 x(29)#29 + 967 x(30)#30
      + 560 x(31)#31 + 669 x(32)#32 + 352 x(33)#33 + 83 x(34)#34 + 539 x(35)#35
      + 950 x(36)#36 + 246 x(37)#37 + 362 x(38)#38 + 422 x(39)#39 + 85 x(40)#40
      + 738 x(41)#41 + 644 x(42)#42 + 525 x(43)#43 + 104 x(44)#44
      + 611 x(45)#45 + 889 x(46)#46 + 558 x(47)#47 + 695 x(48)#48
      + 414 x(49)#49 + 26 x(50)#50 + 86 x(51)#51 + 206 x(52)#52 + 575 x(53)#53
      + 747 x(54)#54 + 87 x(55)#55 + 970 x(56)#56 + 358 x(57)#57 + 581 x(58)#58
      + 115 x(59)#59 + 709 x(60)#60 + 477 x(61)#61 + 228 x(62)#62
      + 127 x(63)#63 + 161 x(64)#64 + 899 x(65)#65 + 301 x(66)#66
      + 257 x(67)#67 + 799 x(68)#68 + 250 x(69)#69 + 854 x(70)#70
      + 584 x(71)#71 + 973 x(72)#72 + 680 x(73)#73 + 555 x(74)#74
      + 725 x(75)#75 + 217 x(76)#76 + 503 x(77)#77 + 548 x(78)#78
      + 149 x(79)#79 + 216 x(80)#80 + 477 x(81)#81 + 719 x(82)#82
      + 179 x(83)#83 + 980 x(84)#84 + 436 x(85)#85 + 262 x(86)#86
      + 367 x(87)#87 + 609 x(88)#88 + 511 x(89)#89 + 793 x(90)#90
      + 585 x(91)#91 + 479 x(92)#92 + 881 x(93)#93 + 818 x(94)#94
      + 748 x(95)#95 + 317 x(96)#96 + 837 x(97)#97 + 147 x(98)#98
      + 667 x(99)#99 <= 39238
 c10: 233 x(0)#0 + 868 x(1)#1 + 407 x(2)#2 + 405 x(3)#3 + 626 x(4)#4
      + 627 x(5)#5 + 26 x(6)#6 + 415 x(7)#7 + 570 x(8)#8 + 16 x(9)#9
      + 474 x(10)#10 + 437 x(11)#11 + 916 x(12)#12 + 816 x(13)#13 + 27 x(14)#14
      + 201 x(15)#15 + 721 x(16)#16 + 291 x(17)#17 + 563 x(18)#18
      + 151 x(19)#19 + 522 x(20)#20 + 210 x(21)#21 + 634 x(22)#22
      + 934 x(23)#23 + 772 x(24)#24 + 277 x(25)#25 + 471 x(26)#26
      + 783 x(27)#27 + 743 x(28)#28 + 615 x(29)#29 + 970 x(30)#30
      + 755 x(31)#31 + 110 x(32)#32 + 517 x(33)#33 + 670 x(34)#34
      + 990 x(35)#35 + 676 x(36)#36 + 451 x(37)#37 + 379 x(38)#38
      + 693 x(39)#39 + 402 x(40)#40 + 590 x(41)#41 + 804 x(42)#42
      + 848 x(43)#43 + 635 x(44)#44 + 927 x(45)#45 + 741 x(46)#46
      + 240 x(47)#47 + 860 x(48)#48 + 948 x(49)#49 + 82 x(50)#50 + 527 x(51)#51
      + 260 x(52)#52 + 526 x(53)#53 + 479 x(54)#54 + 282 x(55)#55
      + 559 x(56)#56 + 882 x(57)#57 + 724 x(58)#58 + 256 x(59)#59
      + 281 x(60)#60 + 616 x(61)#61 + 309 x(62)#62 + 943 x(63)#63
      + 741 x(64)#64 + 165 x(65)#65 + 90 x(66)#66 + 339 x(67)#67 + 131 x(68)#68
      + 657 x(69)#69 + 580 x(70)#70 + 933 x(71)#71 + 180 x(72)#72
      + 752 x(73)#73 + 634 x(74)#74 + 933 x(75)#75 + 285 x(76)#76
      + 313 x(77)#77 + 606 x(78)#78 + 360 x(79)#79 + 589 x(80)#80 + 72 x(81)#81
      + 978 x(82)#82 + 871 x(83)#83 + 518 x(84)#84 + 395 x(85)#85
      + 354 x(86)#86 + 957 x(87)#87 + 29 x(88)#88 + 767 x(89)#89 + 73 x(90)#90
      + 479 x(91)#91 + 914 x(92)#92 + 624 x(93)#93 + 578 x(94)#94
      + 169 x(95)#95 + 126 x(96)#96 + 563 x(97)#97 + 309 x(98)#98
      + 276 x(99)#99 <= 39017
Bounds
 0 <= x(0)#0 <= 1
 0 <= x(1)#1 <= 1
 0 <= x(2)#2 <= 1
 0 <= x(3)#3 <= 1
 0 <= x(4)#4 <= 1
 0 <= x(5)#5 <= 1
 0 <= x(6)#6 <= 1
 0 <= x(7)#7 <= 1
 0 <= x(8)#8 <= 1
 0 <= x(9)#9 <= 1
 0 <= x(10)#10 <= 1
 0 <= x(11)#11 <= 1
 0 <= x(12)#12 <= 1
 0 <= x(13)#13 <= 1
 0 <= x(14)#14 <= 1
 0 <= x(15)#15 <= 1
 0 <= x(16)#16 <= 1
 0 <= x(17)#17 <= 1
 0 <= x(18)#18 <= 1
 0 <= x(19)#19 <= 1
 0 <= x(20)#20 <= 1
 0 <= x(21)#21 <= 1
 0 <= x(22)#22 <= 1
 0 <= x(23)#23 <= 1
 0 <= x(24)#24 <= 1
 0 <= x(25)#25 <= 1
 0 <= x(26)#26 <= 1
 0 <= x(27)#27 <= 1
 0 <= x(28)#28 <= 1
 0 <= x(29)#29 <= 1
 0 <= x(30)#30 <= 1
 0 <= x(31)#31 <= 1
 0 <= x(32)#32 <= 1
 0 <= x(33)#33 <= 1
 0 <= x(34)#34 <= 1
 0 <= x(35)#35 <= 1
 0 <= x(36)#36 <= 1
 0 <= x(37)#37 <= 1
 0 <= x(38)#38 <= 1
 0 <= x(39)#39 <= 1
 0 <= x(40)#40 <= 1
 0 <= x(41)#41 <= 1
 0 <= x(42)#42 <= 1
 0 <= x(43)#43 <= 1
 0 <= x(44)#44 <= 1
 0 <= x(45)#45 <= 1
 0 <= x(46)#46 <= 1
 0 <= x(47)#47 <= 1
 0 <= x(48)#48 <= 1
 0 <= x(49)#49 <= 1
 0 <= x(50)#50 <= 1
 0 <= x(51)#51 <= 1
 0 <= x(52)#52 <= 1
 0 <= x(53)#53 <= 1
 0 <= x(54)#54 <= 1
 0 <= x(55)#55 <= 1
 0 <= x(56)#56 <= 1
 0 <= x(57)#57 <= 1
 0 <= x(58)#58 <= 1
 0 <= x(59)#59 <= 1
 0 <= x(60)#60 <= 1
 0 <= x(61)#61 <= 1
 0 <= x(62)#62 <= 1
 0 <= x(63)#63 <= 1
 0 <= x(64)#64 <= 1
 0 <= x(65)#65 <= 1
 0 <= x(66)#66 <= 1
 0 <= x(67)#67 <= 1
 0 <= x(68)#68 <= 1
 0 <= x(69)#69 <= 1
 0 <= x(70)#70 <= 1
 0 <= x(71)#71 <= 1
 0 <= x(72)#72 <= 1
 0 <= x(73)#73 <= 1
 0 <= x(74)#74 <= 1
 0 <= x(75)#75 <= 1
 0 <= x(76)#76 <= 1
 0 <= x(77)#77 <= 1
 0 <= x(78)#78 <= 1
 0 <= x(79)#79 <= 1
 0 <= x(80)#80 <= 1
 0 <= x(81)#81 <= 1
 0 <= x(82)#82 <= 1
 0 <= x(83)#83 <= 1
 0 <= x(84)#84 <= 1
 0 <= x(85)#85 <= 1
 0 <= x(86)#86 <= 1
 0 <= x(87)#87 <= 1
 0 <= x(88)#88 <= 1
 0 <= x(89)#89 <= 1
 0 <= x(90)#90 <= 1
 0 <= x(91)#91 <= 1
 0 <= x(92)#92 <= 1
 0 <= x(93)#93 <= 1
 0 <= x(94)#94 <= 1
 0 <= x(95)#95 <= 1
 0 <= x(96)#96 <= 1
 0 <= x(97)#97 <= 1
 0 <= x(98)#98 <= 1
 0 <= x(99)#99 <= 1
Generals
 x(0)#0  x(1)#1  x(2)#2  x(3)#3  x(4)#4  x(5)#5  x(6)#6  x(7)#7  x(8)#8 
 x(9)#9  x(10)#10  x(11)#11  x(12)#12  x(13)#13  x(14)#14  x(15)#15  x(16)#16 
 x(17)#17  x(18)#18  x(19)#19  x(20)#20  x(21)#21  x(22)#22  x(23)#23 
 x(24)#24  x(25)#25  x(26)#26  x(27)#27  x(28)#28  x(29)#29  x(30)#30 
 x(31)#31  x(32)#32  x(33)#33  x(34)#34  x(35)#35  x(36)#36  x(37)#37 
 x(38)#38  x(39)#39  x(40)#40  x(41)#41  x(42)#42  x(43)#43  x(44)#44 
 x(45)#45  x(46)#46  x(47)#47  x(48)#48  x(49)#49  x(50)#50  x(51)#51 
 x(52)#52  x(53)#53  x(54)#54  x(55)#55  x(56)#56  x(57)#57  x(58)#58 
 x(59)#59  x(60)#60  x(61)#61  x(62)#62  x(63)#63  x(64)#64  x(65)#65 
 x(66)#66  x(67)#67  x(68)#68  x(69)#69  x(70)#70  x(71)#71  x(72)#72 
 x(73)#73  x(74)#74  x(75)#75  x(76)#76  x(77)#77  x(78)#78  x(79)#79 
 x(80)#80  x(81)#81  x(82)#82  x(83)#83  x(84)#84  x(85)#85  x(86)#86 
 x(87)#87  x(88)#88  x(89)#89  x(90)#90  x(91)#91  x(92)#92  x(93)#93 
 x(94)#94  x(95)#95  x(96)#96  x(97)#97  x(98)#98  x(99)#99 
End
